c generated by sgen
p cnf 45 100
-2 -3 -4 0
-1 -3 -4 0
-1 -2 -4 0
-1 -2 -3 0
-6 -7 -8 0
-5 -7 -8 0
-5 -6 -8 0
-5 -6 -7 0
-10 -11 -12 0
-9 -11 -12 0
-9 -10 -12 0
-9 -10 -11 0
-14 -15 -16 0
-13 -15 -16 0
-13 -14 -16 0
-13 -14 -15 0
-18 -19 -20 0
-17 -19 -20 0
-17 -18 -20 0
-17 -18 -19 0
-22 -23 -24 0
-21 -23 -24 0
-21 -22 -24 0
-21 -22 -23 0
-26 -27 -28 0
-25 -27 -28 0
-25 -26 -28 0
-25 -26 -27 0
-30 -31 -32 0
-29 -31 -32 0
-29 -30 -32 0
-29 -30 -31 0
-34 -35 -36 0
-33 -35 -36 0
-33 -34 -36 0
-33 -34 -35 0
-38 -39 -40 0
-37 -39 -40 0
-37 -38 -40 0
-37 -38 -39 0
-41 -42 -43 0
-41 -42 -44 0
-41 -42 -45 0
-41 -43 -44 0
-41 -43 -45 0
-41 -44 -45 0
-42 -43 -44 0
-42 -43 -45 0
-42 -44 -45 0
-43 -44 -45 0
15 25 23 0
38 25 23 0
38 15 23 0
38 15 25 0
42 36 5 0
24 36 5 0
24 42 5 0
24 42 36 0
28 1 45 0
31 1 45 0
31 28 45 0
31 28 1 0
44 16 4 0
35 16 4 0
35 44 4 0
35 44 16 0
40 32 33 0
12 32 33 0
12 40 33 0
12 40 32 0
43 30 37 0
17 30 37 0
17 43 37 0
17 43 30 0
41 26 6 0
11 26 6 0
11 41 6 0
11 41 26 0
8 2 18 0
39 2 18 0
39 8 18 0
39 8 2 0
7 19 14 0
29 19 14 0
29 7 14 0
29 7 19 0
10 13 21 0
3 13 21 0
3 10 21 0
3 10 13 0
20 9 27 0
20 9 34 0
20 9 22 0
20 27 34 0
20 27 22 0
20 34 22 0
9 27 34 0
9 27 22 0
9 34 22 0
27 34 22 0
